RT is False
Default write of storage_offers_DA.csv just to have a file (but constraint should be inactive)
Reading model...
...model read.
creating competitive generators file...
...competitive generators recorded.
Loading data...
.. day-ahead data with real-time VRE data read.
Compiling instance...
...instance created.
Creating Offer Mitigation (model will solve as dispatch if TRUE)...
...storage offer mitigation file created
Converting model to MPEC...
...converted
NOTE: initial MIP solve with only storage competitive to get feasible solution
Solving...

Welcome to IBM(R) ILOG(R) CPLEX(R) Interactive Optimizer 12.9.0.0
  with Simplex, Mixed Integer & Barrier Optimizers
5725-A06 5725-A29 5724-Y48 5724-Y49 5724-Y54 5724-Y55 5655-Y21
Copyright IBM Corp. 1988, 2019.  All Rights Reserved.

Type 'help' for a list of available commands.
Type 'help' followed by a command name for more
information on commands.

CPLEX> Logfile 'cplex.log' closed.
Logfile 'C:\Users\llavin\Desktop\test826\logs\tmpghtfijz3.cplex.log' open.
CPLEX> New value for parallel optimization mode: -1
CPLEX> New value for mixed integer optimality gap tolerance: 0.01
CPLEX> New value for integrality tolerance: 1e-09
CPLEX> New value for feasibility tolerance: 0.001
CPLEX> New value for deterministic time limit in ticks: 75000
CPLEX> Problem 'C:\Users\llavin\Desktop\test826\logs\tmp__wltuli.pyomo.lp' read.
Read time = 0.23 sec. (14.73 ticks)
CPLEX> Problem name         : C:\Users\llavin\Desktop\test826\logs\tmp__wltuli.pyomo.lp
Objective sense      : Maximize
Variables            :   53805  [Nneg: 1,  Box: 22000,  Free: 4464,
                                 Binary: 27340]
Objective nonzeros   :    9040
Linear constraints   :  123205  [Less: 41346,  Greater: 59096,  Equal: 22763]
  Nonzeros           :  291764
  RHS nonzeros       :   67502

Variables            : Min LB: -5000.000        Max UB: 1000000.       
Objective nonzeros   : Min   : 0.008333333      Max   : 2500.000       
Linear constraints   :
  Nonzeros           : Min   : 0.008333333      Max   : 1000000.       
  RHS nonzeros       : Min   : 0.008333333      Max   : 1000000.       
CPLEX> CPXPARAM_Parallel                                -1
CPXPARAM_Simplex_Tolerances_Feasibility          0.001
CPXPARAM_DetTimeLimit                            75000
CPXPARAM_MIP_Tolerances_MIPGap                   0.01
CPXPARAM_MIP_Tolerances_Integrality              1.0000000000000001e-09
Tried aggregator 3 times.
MIP Presolve eliminated 88619 rows and 18951 columns.
MIP Presolve added 3383 rows and 0 columns.
MIP Presolve modified 24926 coefficients.
Aggregator did 12979 substitutions.
Reduced MIP has 24990 rows, 21327 columns, and 71262 nonzeros.
Reduced MIP has 8430 binaries, 0 generals, 0 SOSs, and 0 indicators.
Presolve time = 0.30 sec. (173.55 ticks)
Probing fixed 377 vars, tightened 2837 bounds.
Probing time = 1.16 sec. (856.46 ticks)
Tried aggregator 2 times.
MIP Presolve eliminated 848 rows and 754 columns.
MIP Presolve modified 2224 coefficients.
Aggregator did 36 substitutions.
Reduced MIP has 24106 rows, 20537 columns, and 68704 nonzeros.
Reduced MIP has 8053 binaries, 0 generals, 0 SOSs, and 0 indicators.
Presolve time = 0.09 sec. (67.49 ticks)
Probing time = 0.03 sec. (16.63 ticks)
Clique table members: 6321.
MIP emphasis: balance optimality and feasibility.
MIP search method: dynamic search.
Parallel mode: opportunistic, using up to 32 threads.
Root relaxation solution time = 0.45 sec. (529.86 ticks)

        Nodes                                         Cuts/
   Node  Left     Objective  IInf  Best Integer    Best Bound    ItCnt     Gap

      0     0     2434.6784   637                   2434.6784     6939         
      0     0     2434.6784     1                 Flowcuts: 1     6940         
      0     2     2434.6784     1                   Covers: 1     6940         
Elapsed time = 8.50 sec. (5083.23 ticks, tree = 0.02 MB, solutions = 1)
*     6     2      integral     0     2309.7975     2380.7493     6957    3.07%

Cover cuts applied:  1
Flow cuts applied:  1

Root node processing (before b&c):
  Real time             =    7.48 sec. (5041.97 ticks)
Parallel b&c, 32 threads:
  Real time             =    1.13 sec. (92.42 ticks)
  Sync time (average)   =    0.42 sec.
  Wait time (average)   =    0.00 sec.
                          ------------
Total (root+branch&cut) =    8.61 sec. (5134.40 ticks)

Solution pool: 1 solution saved.

MIP - Integer optimal, tolerance (0.01/1e-06):  Objective =  2.3097974961e+03
Current MIP best bound =  2.3232106431e+03 (gap = 13.4131, 0.58%)
Solution time =    8.64 sec.  Iterations = 6969  Nodes = 9 (1)
Deterministic time = 5134.55 ticks  (594.21 ticks/sec)

CPLEX> Incumbent solution written to file 'C:\Users\llavin\Desktop\test826\logs\tmpsc9_sds8.cplex.sol'.
CPLEX> NOTE: no warmstart specified for MIP iteration, default behavior is true
NOTE: resolving with all competitive generators using storage-only solution to warmstart
Solving...

Welcome to IBM(R) ILOG(R) CPLEX(R) Interactive Optimizer 12.9.0.0
  with Simplex, Mixed Integer & Barrier Optimizers
5725-A06 5725-A29 5724-Y48 5724-Y49 5724-Y54 5724-Y55 5655-Y21
Copyright IBM Corp. 1988, 2019.  All Rights Reserved.

Type 'help' for a list of available commands.
Type 'help' followed by a command name for more
information on commands.

CPLEX> Logfile 'cplex.log' closed.
Logfile 'C:\Users\llavin\Desktop\test826\logs\tmpcpec5rdc.cplex.log' open.
CPLEX> New value for parallel optimization mode: -1
CPLEX> New value for mixed integer optimality gap tolerance: 0.01
CPLEX> New value for integrality tolerance: 1e-09
CPLEX> New value for feasibility tolerance: 0.001
CPLEX> New value for deterministic time limit in ticks: 75000
CPLEX> Problem 'C:\Users\llavin\Desktop\test826\logs\tmpm1pmjcs3.pyomo.lp' read.
Read time = 0.27 sec. (14.75 ticks)
CPLEX> MIP start file 'C:\Users\llavin\Desktop\test826\logs\tmpipajdbdl.cplex.mst' read.
CPLEX> Problem name         : C:\Users\llavin\Desktop\test826\logs\tmpm1pmjcs3.pyomo.lp
Objective sense      : Maximize
Variables            :   54525  [Nneg: 1,  Box: 22720,  Free: 4464,
                                 Binary: 27340]
Objective nonzeros   :    9760
Linear constraints   :  123205  [Less: 41346,  Greater: 59096,  Equal: 22763]
  Nonzeros           :  291764
  RHS nonzeros       :   67502

Variables            : Min LB: -5000.000        Max UB: 1000000.       
Objective nonzeros   : Min   : 0.008333333      Max   : 2500.000       
Linear constraints   :
  Nonzeros           : Min   : 0.008333333      Max   : 1000000.       
  RHS nonzeros       : Min   : 0.008333333      Max   : 1000000.       
CPLEX> CPXPARAM_Parallel                                -1
CPXPARAM_Simplex_Tolerances_Feasibility          0.001
CPXPARAM_DetTimeLimit                            75000
CPXPARAM_MIP_Tolerances_MIPGap                   0.01
CPXPARAM_MIP_Tolerances_Integrality              1.0000000000000001e-09
Warning:  No solution found from 1 MIP starts.
Retaining values of one MIP start for possible repair.
Tried aggregator 3 times.
MIP Presolve eliminated 88619 rows and 19671 columns.
MIP Presolve added 3383 rows and 0 columns.
MIP Presolve modified 24926 coefficients.
Aggregator did 12979 substitutions.
Reduced MIP has 24990 rows, 21327 columns, and 71262 nonzeros.
Reduced MIP has 8430 binaries, 0 generals, 0 SOSs, and 0 indicators.
Presolve time = 0.30 sec. (173.91 ticks)
Probing fixed 377 vars, tightened 2837 bounds.
Probing time = 1.17 sec. (856.46 ticks)
Tried aggregator 2 times.
MIP Presolve eliminated 848 rows and 754 columns.
MIP Presolve modified 2224 coefficients.
Aggregator did 36 substitutions.
Reduced MIP has 24106 rows, 20537 columns, and 68704 nonzeros.
Reduced MIP has 8053 binaries, 0 generals, 0 SOSs, and 0 indicators.
Presolve time = 0.11 sec. (67.49 ticks)
Probing time = 0.03 sec. (16.63 ticks)
Clique table members: 6321.
MIP emphasis: balance optimality and feasibility.
MIP search method: dynamic search.
Parallel mode: opportunistic, using up to 32 threads.
Root relaxation solution time = 0.42 sec. (529.86 ticks)

        Nodes                                         Cuts/
   Node  Left     Objective  IInf  Best Integer    Best Bound    ItCnt     Gap

      0     0     2434.6784   637                   2434.6784     6939         
      0     0     2434.6784     1                 Flowcuts: 1     6940         
Repair heuristic found nothing.
      0     2     2434.6784     1                   Covers: 1     6940         
Elapsed time = 8.84 sec. (5192.87 ticks, tree = 0.02 MB, solutions = 1)
*    11+    1                         2309.7975     2309.7975             0.00%

Cover cuts applied:  1
Flow cuts applied:  1

Root node processing (before b&c):
  Real time             =    7.89 sec. (5151.64 ticks)
Parallel b&c, 32 threads:
  Real time             =    1.09 sec. (89.71 ticks)
  Sync time (average)   =    0.41 sec.
  Wait time (average)   =    0.00 sec.
                          ------------
Total (root+branch&cut) =    8.98 sec. (5241.35 ticks)

Solution pool: 1 solution saved.

MIP - Integer optimal solution:  Objective =  2.3097974961e+03
Solution time =    9.00 sec.  Iterations = 7014  Nodes = 14
Deterministic time = 5241.51 ticks  (582.39 ticks/sec)

CPLEX> Incumbent solution written to file 'C:\Users\llavin\Desktop\test826\logs\tmp4w1d3gnm.cplex.sol'.
CPLEX> Exporting results... 
